(set-info :smt-lib-version 2.6)
(set-logic QF_UFLRA)
(set-info :source |
MathSat group

|)
(set-info :category "random")
(set-info :status sat)
(declare-fun f0_1 (Real) Real)
(declare-fun f0_2 (Real Real) Real)
(declare-fun f0_3 (Real Real Real) Real)
(declare-fun f0_4 (Real Real Real Real) Real)
(declare-fun f1_1 (Real) Real)
(declare-fun f1_2 (Real Real) Real)
(declare-fun f1_3 (Real Real Real) Real)
(declare-fun f1_4 (Real Real Real Real) Real)
(declare-fun x0 () Real)
(declare-fun x1 () Real)
(declare-fun x2 () Real)
(declare-fun x3 () Real)
(declare-fun x4 () Real)
(declare-fun x5 () Real)
(declare-fun x6 () Real)
(declare-fun x7 () Real)
(declare-fun x8 () Real)
(declare-fun x9 () Real)
(declare-fun x10 () Real)
(declare-fun x11 () Real)
(declare-fun x12 () Real)
(declare-fun x13 () Real)
(declare-fun x14 () Real)
(declare-fun x15 () Real)
(declare-fun x16 () Real)
(declare-fun x17 () Real)
(declare-fun x18 () Real)
(declare-fun x19 () Real)
(declare-fun x20 () Real)
(declare-fun x21 () Real)
(declare-fun x22 () Real)
(declare-fun x23 () Real)
(declare-fun x24 () Real)
(declare-fun x25 () Real)
(declare-fun x26 () Real)
(declare-fun x27 () Real)
(declare-fun x28 () Real)
(declare-fun x29 () Real)
(declare-fun P0 () Bool)
(declare-fun P1 () Bool)
(declare-fun P2 () Bool)
(declare-fun P3 () Bool)
(declare-fun P4 () Bool)
(declare-fun P5 () Bool)
(declare-fun P6 () Bool)
(declare-fun P7 () Bool)
(declare-fun P8 () Bool)
(declare-fun P9 () Bool)
(declare-fun P10 () Bool)
(declare-fun P11 () Bool)
(declare-fun P12 () Bool)
(declare-fun P13 () Bool)
(declare-fun P14 () Bool)
(declare-fun P15 () Bool)
(declare-fun P16 () Bool)
(declare-fun P17 () Bool)
(declare-fun P18 () Bool)
(declare-fun P19 () Bool)
(declare-fun P20 () Bool)
(declare-fun P21 () Bool)
(declare-fun P22 () Bool)
(declare-fun P23 () Bool)
(declare-fun P24 () Bool)
(declare-fun P25 () Bool)
(declare-fun P26 () Bool)
(declare-fun P27 () Bool)
(declare-fun P28 () Bool)
(declare-fun P29 () Bool)
(assert (let ((?v_83 (f0_2 x1 x0)) (?v_26 (f0_1 x18)) (?v_66 (f1_2 x15 x22)) (?v_17 (f1_2 x23 x7)) (?v_113 (f1_2 x28 x1)) (?v_9 (f0_1 x21)) (?v_28 (f0_1 x17)) (?v_77 (f0_1 x22)) (?v_3 (* 6 x19)) (?v_7 (* 23 x1))) (let ((?v_87 (f1_1 ?v_83)) (?v_79 (f0_1 x28)) (?v_35 (f1_1 x15)) (?v_59 (f1_2 x3 x11)) (?v_237 (+ (- (* 12 x9) (* 24 x17)) ?v_7)) (?v_11 (f1_2 x29 x4)) (?v_310 (f1_2 x10 x10)) (?v_62 (f0_2 x6 x24)) (?v_75 (f0_1 x25)) (?v_149 (f0_1 x12)) (?v_37 (f1_1 x19)) (?v_13 (f0_1 x11)) (?v_18 (f1_1 x6)) (?v_14 (f0_1 x1)) (?v_48 (f1_2 ?v_9 (f1_1 ?v_17))) (?v_114 (f0_1 x2)) (?v_73 (f0_1 x7)) (?v_139 (f1_1 x16)) (?v_229 (f0_1 (f0_2 x21 x21))) (?v_102 (- (+ (* 17 x7) (* 2 x25)) (* 2 x28)))) (let ((?v_21 (f0_1 ?v_37)) (?v_43 (f0_2 x25 x5)) (?v_71 (f1_2 x25 x24)) (?v_167 (f1_2 ?v_79 ?v_75)) (?v_259 (< ?v_149 17)) (?v_127 (< x11 28)) (?v_230 (< ?v_48 5)) (?v_39 (< (f1_1 x3) 25)) (?v_239 (< ?v_62 20)) (?v_121 (< ?v_114 13)) (?v_46 (< x10 20)) (?v_260 (< x8 26)) (?v_97 (< (+ (- (* 4 x18) (* 3 x14)) (* 24 x0)) 3))) (let ((?v_119 (= ?v_73 ?v_43)) (?v_152 (< ?v_18 17)) (?v_277 (< ?v_113 4)) (?v_218 (< ?v_18 0)) (?v_100 (< x29 6)) (?v_211 (< x20 6)) (?v_96 (< ?v_11 18)) (?v_49 (< ?v_21 17)) (?v_232 (< x13 14)) (?v_234 (< (f0_2 x16 x11) 16)) (?v_93 (= ?v_59 ?v_26)) (?v_319 (< ?v_229 8)) (?v_118 (< ?v_102 0)) (?v_106 (= (f0_2 x11 x16) ?v_43)) (?v_268 (< x23 1)) (?v_109 (< ?v_87 2)) (?v_153 (= x2 ?v_167)) (?v_249 (= (f1_2 x18 x3) x4)) (?v_31 (< ?v_14 19)) (?v_143 (< (f1_1 x20) 2)) (?v_126 (< x11 6)) (?v_271 (< ?v_139 8)) (?v_184 (< (- (+ (* 13 x20) (* 6 x1)) (* 23 x13)) 15)) (?v_222 (< (f1_2 x8 x16) 2)) (?v_123 (< ?v_229 13)) (?v_214 (< (f0_2 ?v_113 x16) 3)) (?v_199 (< ?v_149 6)) (?v_24 (< (- (+ (* 16 ?v_17) (* 4 ?v_59)) (* 13 (f1_1 x12))) 10)) (?v_162 (= x20 (f0_2 x24 x15))) (?v_267 (< ?v_59 10)) (?v_67 (< x13 7)) (?v_54 (< ?v_75 19)) (?v_178 (< x29 8)) (?v_292 (< ?v_87 0)) (?v_280 (< x6 22)) (?v_29 (< (f0_2 x17 x17) 2)) (?v_89 (< ?v_73 1)) (?v_261 (< ?v_71 18)) (?v_136 (= x4 ?v_66)) (?v_254 (< x5 12)) (?v_55 (< x9 24)) (?v_148 (= ?v_26 ?v_35))) (let ((?v_321 (not ?v_96)) (?v_32 (not ?v_152)) (?v_132 (not P9)) (?v_233 (not ?v_280)) (?v_191 (not ?v_260)) (?v_304 (not ?v_49)) (?v_70 (not ?v_222)) (?v_99 (not ?v_126)) (?v_88 (not (< ?v_11 10))) (?v_188 (not P23)) (?v_156 (not ?v_211)) (?v_243 (not ?v_249)) (?v_68 (not ?v_184)) (?v_144 (not ?v_67)) (?v_72 (not ?v_268)) (?v_312 (not ?v_106)) (?v_146 (not ?v_29)) (?v_241 (not ?v_31)) (?v_80 (not P11)) (?v_189 (not P5)) (?v_74 (not (< ?v_9 13))) (?v_220 (not ?v_292)) (?v_240 (not ?v_46)) (?v_110 (not ?v_230)) (?v_160 (not P26)) (?v_138 (not P7)) (?v_225 (not ?v_261)) (?v_166 (not ?v_39)) (?v_293 (not ?v_218)) (?v_176 (not P21)) (?v_245 (not ?v_259)) (?v_273 (not P1)) (?v_150 (not ?v_100)) (?v_235 (not ?v_93)) (?v_283 (not ?v_214)) (?v_242 (not ?v_119)) (?v_192 (not ?v_89)) (?v_164 (not P29)) (?v_183 (not P25)) (?v_155 (not ?v_136)) (?v_215 (not P16)) (?v_320 (not ?v_271)) (?v_202 (not ?v_199)) (?v_181 (not P22)) (?v_274 (not P8)) (?v_182 (not ?v_178)) (?v_279 (not ?v_97)) (?v_204 (not P15)) (?v_306 (not P27)) (?v_200 (not P20)) (?v_223 (not P4)) (?v_296 (not ?v_254)) (?v_228 (not P28)) (?v_270 (not ?v_277)) (?v_255 (not ?v_239)) (?v_0 (+ (* 20 x1) (* 23 x21) (* 28 x13)))) (let ((?v_6 (- (+ (* 24 ?v_77) (* 18 ?v_114)) (* 10 ?v_0)))) (let ((?v_111 (< ?v_6 25))) (let ((?v_171 (not ?v_111)) (?v_15 (+ (* 28 x24) (* 16 x4) (* 11 x12)))) (let ((?v_12 (< ?v_15 1)) (?v_84 (+ (- (* 29 x13) ?v_7) x8)) (?v_19 (< ?v_6 13))) (let ((?v_103 (not ?v_19)) (?v_52 (< (+ (* 8 x6) (* 3 x2) (* 29 x19)) 27)) (?v_115 (+ (* 8 x7) (* 25 x23) (* 12 x17)))) (let ((?v_322 (not ?v_52)) (?v_101 (= ?v_83 ?v_84)) (?v_309 (+ (* 29 x10) (* 17 x29) (* 4 x20)))) (let ((?v_301 (= ?v_309 ?v_43))) (let ((?v_95 (not ?v_301)) (?v_125 (not ?v_101)) (?v_175 (not ?v_12)) (?v_157 (= (f1_2 x0 x21) ?v_115)) (?v_313 (= ?v_309 ?v_310)) (?v_120 (< (f1_2 x29 x2) (- 5)))) (let ((?v_269 (not ?v_120)) (?v_25 (< x22 (- 6))) (?v_50 (= ?v_13 (- (- (* (- 1) x24) (* 18 x16)) (* 14 x25)))) (?v_299 (< ?v_48 (- 14)))) (let ((?v_272 (not ?v_299)) (?v_137 (< ?v_139 (- 4))) (?v_85 (< x10 (- 24)))) (let ((?v_98 (not ?v_85)) (?v_34 (< ?v_71 (- 10)))) (let ((?v_122 (not ?v_34)) (?v_1 (- (+ (* (- 2) (f1_2 x19 x18)) (* 4 ?v_0)) (* 15 x0)))) (let ((?v_165 (< ?v_1 (- 8)))) (let ((?v_147 (not ?v_165)) (?v_4 (- (- (* (- 9) x14) (* 25 x26)) (* 29 x18)))) (let ((?v_57 (< ?v_4 (- 6)))) (let ((?v_78 (not ?v_57)) (?v_33 (< x15 (- 27)))) (let ((?v_308 (not ?v_33)) (?v_20 (+ (* (- 14) x23) (* 18 x1) (* 7 x10)))) (let ((?v_58 (< ?v_20 (- 21))) (?v_94 (< x0 (- 28))) (?v_168 (+ (- (* (- 19) x7) (* 15 x27)) (* 12 x12)))) (let ((?v_2 (- (+ (* (- 24) ?v_168) ?v_3) (* 13 ?v_28)))) (let ((?v_47 (f1_1 ?v_2))) (let ((?v_173 (< ?v_47 (- 28))) (?v_22 (< ?v_1 (- 25))) (?v_8 (< (- (+ (* 29 x22) (* 15 ?v_84)) (* 17 x17)) (- 24))) (?v_5 (- (+ (* 3 ?v_26) ?v_3) (* 12 ?v_4)))) (let ((?v_112 (= ?v_2 ?v_5))) (let ((?v_10 (not ?v_112)) (?v_23 (< ?v_5 9)) (?v_41 (< ?v_237 (- 19))) (?v_263 (not (< (- (- (* (- 2) x20) (* 21 x11)) (* 5 x22)) 4))) (?v_30 (not ?v_8)) (?v_212 (< ?v_9 (- 17))) (?v_16 (- (- (* (- 6) x13) (* 5 x12)) (* 9 x4)))) (let ((?v_56 (< ?v_16 (- 11))) (?v_141 (- (- (* (- 22) x19) (* 23 x9)) (* 5 x16)))) (let ((?v_27 (+ (- (* 28 x15) (* 9 (+ (- (* 18 ?v_13) (f0_2 x24 x4)) (* 17 ?v_14)))) (* 26 ?v_141)))) (let ((?v_216 (< ?v_27 (- 17)))) (let ((?v_210 (not ?v_216)) (?v_53 (< ?v_15 (- 5))) (?v_140 (< ?v_16 8)) (?v_302 (- (- (* (- 22) x9) (* 6 x28)) (* 14 x18)))) (let ((?v_45 (- (+ (* (- 14) ?v_18) (* 16 ?v_302)) (* 24 x3)))) (let ((?v_213 (< ?v_45 (- 28)))) (let ((?v_295 (not ?v_213)) (?v_38 (< (+ (* (- 2) x16) (* 16 x28) (* 20 x15)) (- 12))) (?v_117 (< ?v_20 21)) (?v_42 (< x3 (- 28))) (?v_197 (< ?v_21 (- 22))) (?v_36 (not ?v_25)) (?v_63 (+ (- (* (- 2) x19) (* 2 x3)) (* 13 x10)))) (let ((?v_105 (< ?v_63 (- 15)))) (let ((?v_288 (not ?v_105)) (?v_108 (< ?v_27 (- 10)))) (let ((?v_90 (not ?v_108)) (?v_170 (< (f1_1 ?v_1) (- 24)))) (let ((?v_208 (not ?v_170)) (?v_81 (- (- (* (- 16) ?v_28) (* 12 ?v_11)) (* 10 x13)))) (let ((?v_158 (< ?v_81 10))) (let ((?v_51 (not ?v_158)) (?v_40 (< ?v_115 (- 2))) (?v_315 (= ?v_102 ?v_4)) (?v_151 (< x11 (- 27))) (?v_187 (< (f1_1 x28) (- 4)))) (let ((?v_65 (not ?v_187)) (?v_209 (< ?v_4 (- 11))) (?v_61 (< ?v_13 (- 7))) (?v_60 (< ?v_35 (- 22)))) (let ((?v_131 (not ?v_60)) (?v_128 (< ?v_66 (- 13))) (?v_154 (< ?v_37 (- 20)))) (let ((?v_44 (not ?v_154)) (?v_107 (not ?v_40)) (?v_91 (not ?v_41)) (?v_69 (< ?v_17 (- 6))) (?v_265 (< ?v_16 (- 23))) (?v_92 (< ?v_45 (- 29))) (?v_219 (< ?v_47 20))) (let ((?v_169 (not ?v_219)) (?v_135 (not ?v_50)) (?v_193 (< ?v_11 (- 23))) (?v_236 (< (f0_2 x28 x7) (- 27)))) (let ((?v_244 (not ?v_236)) (?v_275 (< ?v_43 (- 4))) (?v_196 (not ?v_53)) (?v_116 (< x26 (- 18)))) (let ((?v_206 (not ?v_116)) (?v_257 (< (f1_1 ?v_11) (- 22))) (?v_264 (not ?v_56)) (?v_134 (not ?v_42)) (?v_82 (< (f0_2 x22 x29) (- 23)))) (let ((?v_238 (not ?v_82)) (?v_86 (< ?v_310 (- 16))) (?v_207 (< (f0_2 x2 x17) (- 20)))) (let ((?v_64 (not ?v_207)) (?v_224 (< ?v_62 (- 12)))) (let ((?v_133 (not ?v_224)) (?v_180 (< ?v_63 11)) (?v_246 (< (f1_2 ?v_66 x13) (- 16)))) (let ((?v_129 (not ?v_246)) (?v_291 (< x7 (- 20)))) (let ((?v_104 (not ?v_291)) (?v_161 (= ?v_113 (+ (* (- 4) x9) (* 2 x17) (* 23 x24))))) (let ((?v_287 (not ?v_161)) (?v_185 (< (f0_2 x23 x1) (- 9)))) (let ((?v_142 (not ?v_185)) (?v_76 (< ?v_9 (- 11))) (?v_221 (< ?v_73 (- 25)))) (let ((?v_124 (not ?v_221)) (?v_145 (< ?v_77 (- 12))) (?v_201 (< ?v_79 (- 19)))) (let ((?v_226 (not ?v_201)) (?v_179 (< (+ (- (* 25 x13) (* 3 ?v_75)) (* 25 ?v_81)) (- 28)))) (let ((?v_298 (not ?v_179)) (?v_262 (not ?v_86)) (?v_186 (< x3 (- 11)))) (let ((?v_177 (not ?v_186)) (?v_174 (< ?v_15 (- 24))) (?v_297 (not ?v_92)) (?v_205 (not (< ?v_47 27))) (?v_159 (not ?v_117)) (?v_130 (= (f1_1 ?v_16) (f0_1 ?v_77))) (?v_305 (not ?v_128)) (?v_289 (not (< ?v_35 (- 1)))) (?v_195 (not ?v_137)) (?v_163 (not (< ?v_141 28))) (?v_203 (+ (* (- 19) x6) (* 7 x18) (* 9 x28)))) (let ((?v_198 (= ?v_203 ?v_77)) (?v_316 (not ?v_151)) (?v_294 (< (+ (* (- 14) x18) (* 25 x6) (* 14 x16)) 0))) (let ((?v_252 (not ?v_294)) (?v_227 (= ?v_141 ?v_167))) (let ((?v_172 (not ?v_227)) (?v_231 (< (f0_2 ?v_168 ?v_87) 23)) (?v_194 (not ?v_173)) (?v_190 (not ?v_180)) (?v_303 (not ?v_140)) (?v_258 (< x12 (- 23))) (?v_217 (= ?v_168 (- (- (* 24 x13) (* 2 x26)) (* 26 x1)))) (?v_278 (not ?v_145)) (?v_276 (< ?v_16 23)) (?v_251 (not ?v_198)) (?v_250 (< ?v_203 (- 6))) (?v_248 (< ?v_1 (- 4))) (?v_247 (< x26 (- 8)))) (let ((?v_281 (not ?v_247)) (?v_266 (< (+ (- (* 19 x25) (* 18 x15)) (* 2 x7)) (- 23))) (?v_284 (not ?v_231)) (?v_282 (not ?v_209)) (?v_253 (< ?v_149 (- 13))) (?v_256 (= ?v_141 ?v_237)) (?v_286 (not ?v_38))) (let ((?v_317 (not ?v_256)) (?v_285 (not ?v_258)) (?v_314 (not ?v_266)) (?v_318 (not ?v_257)) (?v_290 (+ (* (- 14) x0) (* 2 ?v_35) (* 7 x12)))) (let ((?v_311 (not (< ?v_290 (- 20)))) (?v_300 (< ?v_290 25)) (?v_307 (not ?v_23))) (and (and (and (and (and (and (and (and (and (and (and (and (and (and (and (and (and (and (and (and (and (and (and (and (and (and (and (and (and (and (and (and (and (and (and (and (and (and (and (and (and (and (and (and (and (and (and (and (and (and (and (and (and (and (and (and (and (and (and (and (and (and (and (and (and (and (and (and (and (and (and (and (and (and (and (and (and (and (and (and (and (and (and (and (and (and (and (and (and (and (and (and (and (and (and (and (and (and (and (and (and (and (and (and (and (and (and (and (and (and (and (and (and (and (and (and (and (and (and (and (and (and (and (and (and (and (and (and (and (and (and (and (and (and (and (and (and (and (and (and (and (and (and (and (and (and (and (and (and (and (and (and (and (and (and (and (and (and (and (and (and (and (and (and (and (and (and (and (and (and (and (and (and (and (and (and (and (and (and (and (and (and (and (and (and (and (and (and (and (and (and (and (and (and (and (and (and (and (and (and (and (and (and (and (and (and (and (and (and (and (and (and (and (and (and (and (and (and (and (and (and (and (and (and (and (and (and (and (and (and (and (and (and (and (and (and (and (and (and (and (and (and (and (and (and (and (and (and (and (and (and (and (and (and (and (and (and (and (and (and (and (and (and (and (and (and (and (and (and (and (and (and (and (and (and (and (and (and (and (and (and (and (and (and (and (and (and (and (and (and (and (and (and (and (and (and (and (and (and (or (or ?v_269 ?v_25) ?v_50) (or (or ?v_272 ?v_321) ?v_171)) (or (or ?v_32 ?v_137) ?v_98)) (or (or ?v_132 ?v_122) ?v_147)) (or (or ?v_78 ?v_308) ?v_58)) (or (or (not P17) (not ?v_94)) ?v_100)) (or (or ?v_12 ?v_173) ?v_233)) (or (or ?v_191 ?v_55) ?v_22)) (or (or ?v_8 ?v_29) ?v_304)) (or (or ?v_10 ?v_31) ?v_23)) (or (or P29 ?v_103) ?v_239)) (or (or ?v_41 ?v_232) ?v_70)) (or (or ?v_52 ?v_263) ?v_30)) (or (or ?v_212 ?v_10) ?v_123)) (or (or ?v_99 ?v_39) ?v_88)) (or (or ?v_97 ?v_56) ?v_12)) (or (or ?v_210 P11) ?v_188)) (or (or ?v_53 ?v_140) ?v_156)) (or (or ?v_243 ?v_24) ?v_295)) (or (or ?v_19 ?v_38) ?v_68)) (or (or ?v_117 ?v_42) ?v_197)) (or (or ?v_22 ?v_144) ?v_23)) (or (or ?v_24 (not P19)) ?v_36)) (or (or (not ?v_148) ?v_288) ?v_90)) (or (or ?v_72 ?v_208) ?v_51)) (or (or ?v_40 ?v_312) ?v_315)) (or (or ?v_146 ?v_151) ?v_143)) (or (or ?v_30 ?v_65) ?v_209)) (or (or ?v_241 ?v_61) ?v_54)) (or (or ?v_32 ?v_33) ?v_34)) (or (or ?v_131 ?v_80) ?v_36)) (or (or ?v_189 ?v_128) ?v_44)) (or (or ?v_38 ?v_39) ?v_107)) (or (or ?v_91 ?v_42) ?v_69)) (or (or ?v_119 ?v_46) ?v_44)) (or (or ?v_265 ?v_38) ?v_74)) (or (or ?v_92 ?v_220) ?v_240)) (or (or (not ?v_162) ?v_169) ?v_110)) (or (or ?v_49 ?v_135) ?v_36)) (or (or ?v_51 (not ?v_193)) ?v_244)) (or (or ?v_275 ?v_322) ?v_196)) (or (or ?v_206 (not P2)) ?v_54)) (or (or ?v_160 (not ?v_55)) ?v_19)) (or (or ?v_257 ?v_264) ?v_57)) (or (or ?v_134 ?v_12) ?v_238)) (or (or (not ?v_58) ?v_86) ?v_64)) (or (or ?v_93 ?v_60) ?v_61)) (or (or ?v_133 ?v_180) ?v_138)) (or (or ?v_64 ?v_65) ?v_129)) (or (or ?v_36 ?v_104) ?v_67)) (or (or ?v_68 (not ?v_69)) ?v_70)) (or (or ?v_287 ?v_46) ?v_225)) (or (or ?v_166 ?v_72) ?v_89)) (or (or ?v_31 ?v_293) ?v_142)) (or (or ?v_74 ?v_176) ?v_153)) (or (or P26 ?v_22) ?v_76)) (or (or ?v_76 ?v_124) ?v_145)) (or (or ?v_78 ?v_226) ?v_245)) (or (or ?v_273 ?v_80) ?v_298)) (or (or ?v_82 ?v_101) ?v_85)) (or (or ?v_178 ?v_262) ?v_109)) (or (or ?v_51 ?v_88) ?v_89)) (or (or ?v_177 ?v_90) ?v_52)) (or (or ?v_91 ?v_92) ?v_57)) (or (or ?v_93 ?v_95) ?v_94)) (or (or ?v_95 P23) ?v_96)) (or (or ?v_97 ?v_127) ?v_98)) (or (or ?v_99 ?v_100) ?v_125)) (or (or ?v_174 ?v_53) ?v_29)) (or (or ?v_150 ?v_86) ?v_118)) (or (or ?v_175 ?v_103) ?v_30)) (or (or ?v_104 ?v_105) ?v_106)) (or (or ?v_107 ?v_108) ?v_109)) (or (or ?v_110 ?v_235) ?v_53)) (or (or P8 ?v_111) ?v_297)) (or (or (not P10) ?v_112) ?v_205)) (or (or ?v_94 ?v_92) ?v_136)) (or (or ?v_93 ?v_283) ?v_121)) (or (or ?v_95 ?v_157) ?v_88)) (or (or ?v_116 ?v_159) ?v_130)) (or (or P10 (not ?v_54)) ?v_118)) (or (or ?v_242 ?v_120) (not ?v_121))) (or (or ?v_118 ?v_122) ?v_31)) (or (or ?v_112 (not ?v_123)) ?v_124)) (or (or ?v_125 ?v_192) ?v_126)) (or (or (not ?v_127) ?v_128) ?v_119)) (or (or ?v_129 P8) ?v_23)) (or (or ?v_305 (not ?v_130)) ?v_41)) (or (or ?v_131 ?v_39) ?v_132)) (or (or (not P13) ?v_133) ?v_164)) (or (or ?v_134 ?v_103) ?v_51)) (or (or ?v_135 ?v_289) ?v_65)) (or (or ?v_183 ?v_155) ?v_36)) (or (or ?v_195 ?v_215) ?v_138)) (or (or ?v_320 ?v_140) P11)) (or (or ?v_163 ?v_142) ?v_78)) (or (or ?v_112 ?v_143) ?v_94)) (or (or ?v_198 ?v_103) ?v_144)) (or (or ?v_145 ?v_146) ?v_147)) (or (or (not P12) P12) P25)) (or (or ?v_148 ?v_202) ?v_99)) (or (or ?v_181 ?v_150) ?v_117)) (or (or ?v_316 ?v_152) ?v_131)) (or (or ?v_153 ?v_58) ?v_32)) (or (or ?v_154 P15) ?v_252)) (or (or ?v_119 ?v_155) ?v_156)) (or (or ?v_274 ?v_104) (not ?v_157))) (or (or ?v_158 ?v_159) ?v_74)) (or (or P0 ?v_160) ?v_161)) (or (or ?v_162 ?v_86) ?v_163)) (or (or ?v_99 ?v_164) ?v_54)) (or (or ?v_88 ?v_165) P6)) (or (or ?v_166 ?v_172) ?v_90)) (or (or ?v_231 ?v_169) ?v_110)) (or (or ?v_157 ?v_170) ?v_171)) (or (or ?v_165 ?v_172) ?v_137)) (or (or (not P0) ?v_39) ?v_194)) (or (or ?v_174 ?v_94) ?v_175)) (or (or ?v_131 ?v_176) P26)) (or (or ?v_177 ?v_41) ?v_117)) (or (or ?v_182 ?v_53) ?v_179)) (or (or ?v_279 ?v_190) ?v_204)) (or (or ?v_105 P1) ?v_61)) (or (or ?v_181 (not ?v_153)) ?v_182)) (or (or ?v_64 ?v_105) ?v_306)) (or (or ?v_183 ?v_68) ?v_88)) (or (or ?v_184 ?v_129) ?v_163)) (or (or ?v_185 ?v_176) ?v_186)) (or (or ?v_187 ?v_303) ?v_258)) (or (or ?v_217 ?v_142) ?v_188)) (or (or P22 ?v_189) ?v_190)) (or (or ?v_93 ?v_191) ?v_134)) (or (or ?v_200 ?v_278) (not ?v_174))) (or (or ?v_192 ?v_193) ?v_194)) (or (or ?v_223 ?v_195) ?v_196)) (or (or P20 (not ?v_276)) ?v_170)) (or (or ?v_89 (not ?v_197)) ?v_251)) (or (or ?v_105 P11) ?v_153)) (or (or ?v_199 ?v_133) ?v_88)) (or (or ?v_200 ?v_201) ?v_202)) (or (or ?v_250 (not ?v_248)) ?v_175)) (or (or ?v_80 ?v_197) ?v_117)) (or (or ?v_56 ?v_118) ?v_204)) (or (or P24 P10) ?v_117)) (or (or ?v_179 P24) ?v_197)) (or (or P23 ?v_200) ?v_205)) (or (or ?v_192 ?v_206) ?v_207)) (or (or ?v_147 ?v_121) ?v_208)) (or (or (not P3) ?v_188) ?v_234)) (or (or ?v_52 P29) ?v_101)) (or (or ?v_209 ?v_210) ?v_211)) (or (or ?v_296 ?v_212) ?v_213)) (or (or ?v_214 P7) ?v_129)) (or (or ?v_93 ?v_215) ?v_216)) (or (or ?v_106 ?v_174) (not ?v_217))) (or (or ?v_93 ?v_8) ?v_218)) (or (or ?v_219 ?v_281) ?v_44)) (or (or P16 ?v_163) ?v_220)) (or (or ?v_85 ?v_69) ?v_96)) (or (or ?v_221 ?v_104) ?v_215)) (or (or ?v_222 ?v_223) ?v_224)) (or (or ?v_225 ?v_228) ?v_226)) (or (or (not ?v_61) P8) ?v_227)) (or (or ?v_201 ?v_78) ?v_213)) (or (or ?v_58 ?v_266) ?v_228)) (or (or (not ?v_319) ?v_230) ?v_284)) (or (or ?v_120 ?v_232) P0)) (or (or P0 ?v_76) ?v_267)) (or (or ?v_233 ?v_41) ?v_282)) (or (or ?v_88 ?v_234) ?v_53)) (or (or P17 ?v_253) ?v_53)) (or (or ?v_209 P13) ?v_57)) (or (or ?v_174 ?v_187) ?v_135)) (or (or ?v_158 ?v_235) ?v_236)) (or (or P4 ?v_136) ?v_82)) (or (or ?v_256 ?v_91) ?v_270)) (or (or ?v_143 ?v_238) ?v_191)) (or (or ?v_255 ?v_193) ?v_151)) (or (or ?v_240 P17) ?v_104)) (or (or ?v_241 ?v_242) ?v_152)) (or (or ?v_243 ?v_244) ?v_286)) (or (or ?v_205 ?v_204) ?v_132)) (or (or ?v_245 (not ?v_212)) ?v_246)) (or (or ?v_38 ?v_247) ?v_125)) (or (or ?v_29 ?v_188) ?v_152)) (or (or ?v_240 P8) ?v_36)) (or (or ?v_190 ?v_207) ?v_85)) (or (or ?v_248 ?v_147) ?v_245)) (or (or ?v_249 ?v_250) ?v_251)) (or (or ?v_50 P17) ?v_134)) (or (or ?v_22 ?v_119) ?v_213)) (or (or ?v_86 ?v_252) ?v_253)) (or (or ?v_51 ?v_254) ?v_159)) (or (or ?v_186 ?v_253) ?v_243)) (or (or ?v_52 ?v_169) P10)) (or (or ?v_19 ?v_240) ?v_85)) (or (or P7 P14) ?v_208)) (or (or ?v_176 ?v_255) ?v_80)) (or (or ?v_234 ?v_153) ?v_317)) (or (or ?v_99 ?v_257) ?v_210)) (or (or ?v_285 ?v_259) ?v_137)) (or (or P18 ?v_22) ?v_260)) (or (or ?v_107 ?v_151) ?v_108)) (or (or P20 ?v_70) ?v_261)) (or (or ?v_262 ?v_263) ?v_264)) (or (or ?v_39 ?v_265) ?v_233)) (or (or ?v_220 ?v_314) ?v_267)) (or (or ?v_230 ?v_265) ?v_211)) (or (or ?v_209 ?v_105) ?v_268)) (or (or ?v_269 ?v_178) ?v_176)) (or (or ?v_270 ?v_86) ?v_10)) (or (or ?v_161 ?v_192) ?v_171)) (or (or ?v_41 ?v_218) ?v_30)) (or (or ?v_271 ?v_272) (not ?v_253))) (or (or ?v_273 ?v_189) P14)) (or (or ?v_19 ?v_33) ?v_65)) (or (or ?v_274 ?v_19) ?v_179)) (or (or ?v_207 ?v_108) ?v_275)) (or (or ?v_112 ?v_157) ?v_80)) (or (or ?v_170 ?v_276) ?v_250)) (or (or ?v_60 ?v_142) ?v_241)) (or (or ?v_277 ?v_89) ?v_184)) (or (or ?v_118 ?v_195) ?v_191)) (or (or ?v_226 ?v_195) ?v_169)) (or (or P24 ?v_116) ?v_223)) (or (or ?v_216 ?v_239) ?v_57)) (or (or ?v_267 ?v_60) ?v_278)) (or (or ?v_251 ?v_318) ?v_122)) (or (or ?v_279 ?v_101) ?v_268)) (or (or ?v_280 ?v_199) ?v_182)) (or (or ?v_119 ?v_219) ?v_31)) (or (or ?v_97 ?v_51) ?v_281)) (or (or ?v_282 ?v_274) ?v_145)) (or (or ?v_283 ?v_157) ?v_256)) (or (or ?v_103 ?v_223) ?v_248)) (or (or ?v_263 P8) ?v_123)) (or (or ?v_311 ?v_259) ?v_138)) (or (or ?v_170 ?v_222) P10)) (or (or P0 ?v_140) ?v_25)) (or (or ?v_140 ?v_56) ?v_213)) (or (or ?v_205 ?v_284) ?v_285)) (or (or ?v_286 ?v_201) (not P14))) (or (or ?v_236 ?v_287) ?v_120)) (or (or ?v_204 ?v_106) ?v_288)) (or (or ?v_46 ?v_155) ?v_289)) (or (or ?v_300 ?v_291) ?v_144)) (or (or ?v_292 P3) ?v_119)) (or (or ?v_266 ?v_249) P16)) (or (or ?v_178 (not P18)) ?v_131)) (or (or ?v_247 ?v_116) ?v_205)) (or (or ?v_216 P5) ?v_236)) (or (or ?v_163 ?v_293) ?v_307)) (or (or ?v_217 ?v_282) P18)) (or (or ?v_144 (not ?v_267)) ?v_209)) (or (or ?v_179 ?v_255) ?v_74)) (or (or ?v_294 ?v_190) ?v_295)) (or (or ?v_127 ?v_56) ?v_296)) (or (or ?v_297 ?v_108) ?v_275)) (or (or ?v_134 ?v_298) ?v_208)) (or (or P24 ?v_214) ?v_156)) (or (or ?v_86 ?v_299) ?v_127)) (or (or ?v_107 ?v_300) ?v_152)) (or (or ?v_211 ?v_183) ?v_301)) (or (or (not (= ?v_66 ?v_302)) ?v_260) P10)) (or (or ?v_131 ?v_41) ?v_303)) (or (or (not ?v_118) ?v_182) ?v_145)) (or (or P16 ?v_22) ?v_243)) (or (or ?v_146 ?v_199) ?v_117)) (or (or ?v_304 ?v_305) ?v_306)) (or (or ?v_19 ?v_161) ?v_64)) (or (or ?v_208 P24) ?v_34)) (or (or P20 ?v_76) ?v_307)) (or (or P29 ?v_262) ?v_239)) (or (or ?v_266 ?v_213) ?v_308)) (or (or ?v_194 ?v_313) ?v_136)) (or (or ?v_166 ?v_25) ?v_311)) (or (or ?v_44 ?v_312) ?v_254)) (or (or ?v_33 (not P24)) (not ?v_22))) (or (or ?v_289 ?v_165) P20)) (or (or ?v_307 ?v_218) ?v_240)) (or (or ?v_156 P6) ?v_313)) (or (or ?v_314 ?v_222) ?v_315)) (or (or ?v_65 ?v_219) ?v_10)) (or (or ?v_245 ?v_250) ?v_305)) (or (or ?v_316 ?v_166) ?v_317)) (or (or ?v_279 P17) ?v_107)) (or (or ?v_22 ?v_166) ?v_86)) (or (or P20 ?v_253) ?v_204)) (or (or ?v_145 ?v_180) ?v_316)) (or (or ?v_29 ?v_194) ?v_197)) (or (or ?v_143 ?v_76) P25)) (or (or ?v_318 ?v_293) ?v_261)) (or (or (not ?v_232) ?v_319) ?v_39)) (or (or P18 ?v_249) ?v_263)) (or (or ?v_320 ?v_96) ?v_119)) (or (or ?v_233 ?v_188) ?v_321)) (or (or ?v_155 ?v_95) ?v_249)) (or (or ?v_135 ?v_261) ?v_92)) (or (or ?v_186 ?v_271) ?v_322)) (or (or ?v_189 ?v_192) P11)))))))))))))))))))))))))))))))))))))))))))))))))))))))))))))))))))
(check-sat)
(exit)
